# This LAMMPS input script simulates surface tension measurement of water

dimension 3
boundary p p p
units real
atom_style atomic


read_data chignolin_solvated_2.lmpdat
replicate ${Nrep} ${Nrep} ${Nrep}

mass 		1 1.008
mass        	2  1.0
mass        	3  6.941
mass        	4  1.0
mass        	5 10.81
mass 		6 12.011
mass 		7 14.0067
mass 		8 15.999

write_data chignolin_${Nrep}.lmpdat